468
1 0 5 235 0 468 1 467 1 466 1 465 1
2 0 5 236 1 334 1 446 1 373 1 372 1
3 0 5 237 1 325 1 442 1 278 1 357 1
4 0 5 238 1 323 1 253 1 289 1 243 1
5 0 5 239 1 307 1 360 1 400 1 356 1
6 0 5 240 1 245 1 428 1 378 1 281 1
7 0 5 241 1 357 1 278 1 305 1 374 1
8 0 5 242 1 416 1 333 1 352 1 392 1
9 0 5 243 1 421 1 420 1 362 1 333 1
10 0 5 244 1 236 1 446 1 334 1 373 1
11 0 5 245 1 428 1 378 1 281 1 411 1
12 0 5 246 1 241 1 448 1 282 1 326 1
13 0 5 247 1 364 1 399 1 395 1 382 1
14 0 5 248 1 278 1 237 1 246 1 241 1
15 0 5 249 1 324 1 365 1 340 1 250 1
16 0 5 250 1 294 1 433 1 309 1 340 1
17 0 5 251 1 438 1 375 1 333 1 422 1
18 0 5 252 1 274 1 342 1 235 1 288 1
19 0 5 253 1 243 1 437 1 293 1 289 1
20 0 5 254 1 427 1 431 1 443 1 279 1
21 0 5 255 1 320 1 408 1 315 1 262 1
22 0 5 256 1 417 1 391 1 285 1 347 1
23 0 5 257 1 386 1 251 1 419 1 438 1
24 0 5 258 1 417 1 391 1 347 1 310 1
25 0 5 259 1 296 1 335 1 407 1 299 1
26 0 5 260 1 407 1 296 1 335 1 312 1
27 0 5 261 1 387 1 368 1 427 1 275 1
28 0 5 262 1 408 1 255 1 320 1 389 1
29 0 5 263 1 309 1 294 1 384 1 433 1
30 0 5 264 1 322 1 340 1 277 1 287 1
31 0 5 265 1 254 1 355 1 427 1 337 1
32 0 5 266 1 260 1 259 1 407 1 296 1
33 0 5 267 1 406 1 300 1 432 1 321 1
34 0 5 268 1 356 1 400 1 341 1 423 1
35 0 5 269 1 330 1 393 1 400 1 423 1
36 0 5 270 1 361 1 306 1 244 1 272 1
37 0 5 271 1 268 1 356 1 440 1 341 1
38 0 5 272 1 316 1 441 1 373 1 444 1
39 0 5 273 1 385 1 293 1 349 1 257 1
40 0 5 274 1 342 1 235 1 280 1 252 1
41 0 5 275 1 388 1 431 1 249 1 332 1
42 0 5 276 1 320 1 255 1 315 1 262 1
43 0 5 277 1 358 1 405 1 433 1 369 1
44 0 5 278 1 237 1 442 1 325 1 241 1
45 0 5 279 1 337 1 254 1 443 1 381 1
46 0 5 280 1 262 1 255 1 320 1 408 1
47 0 5 281 1 363 1 271 1 411 1 440 1
48 0 5 282 1 326 1 282 1 246 1 241 1
49 0 5 283 1 368 1 261 1 387 1 431 1
50 0 5 284 1 444 1 396 1 290 1 289 1
51 0 5 285 1 347 1 391 1 275 1 403 1
52 0 5 286 1 409 1 371 1 424 1 329 1
53 0 5 287 1 327 1 277 1 405 1 358 1
54 0 5 288 1 418 1 379 1 372 1 334 1
55 0 5 289 1 420 1 367 1 362 1 333 1
56 0 5 290 1 370 1 293 1 419 1 434 1
57 0 5 291 1 298 1 346 1 377 1 373 1
58 0 5 292 1 318 1 292 1 378 1 245 1
59 0 5 293 1 419 1 434 1 420 1 272 1
60 0 5 294 1 433 1 250 1 309 1 340 1
61 0 5 295 1 415 1 317 1 378 1 319 1
62 0 5 296 1 299 1 445 1 335 1 312 1
63 0 5 297 1 366 1 279 1 337 1 427 1
64 0 5 298 1 291 1 412 1 346 1 377 1
65 0 5 299 1 414 1 344 1 397 1 445 1
66 0 5 300 1 350 1 282 1 448 1 329 1
67 0 5 301 1 399 1 382 1 351 1 247 1
68 0 5 302 1 252 1 274 1 342 1 344 1
69 0 5 303 1 311 1 331 1 365 1 431 1
70 0 5 304 1 435 1 329 1 409 1 305 1
71 0 5 305 1 374 1 435 1 397 1 301 1
72 0 5 306 1 244 1 272 1 446 1 236 1
73 0 5 307 1 239 1 400 1 423 1 436 1
74 0 5 308 1 351 1 247 1 364 1 382 1
75 0 5 309 1 384 1 433 1 294 1 249 1
76 0 5 310 1 398 1 429 1 347 1 439 1
77 0 5 311 1 331 1 365 1 263 1 309 1
78 0 5 312 1 345 1 299 1 445 1 397 1
79 0 5 313 1 410 1 390 1 248 1 308 1
80 0 5 314 1 264 1 380 1 322 1 430 1
81 0 5 315 1 266 1 389 1 260 1 408 1
82 0 5 316 1 373 1 372 1 446 1 334 1
83 0 5 317 1 415 1 295 1 378 1 319 1
84 0 5 318 1 411 1 428 1 281 1 378 1
85 0 5 319 1 426 1 411 1 271 1 363 1
86 0 5 320 1 315 1 266 1 408 1 262 1
87 0 5 321 1 329 1 350 1 376 1 286 1
88 0 5 322 1 277 1 358 1 405 1 369 1
89 0 5 323 1 243 1 437 1 289 1 421 1
90 0 5 324 1 340 1 250 1 365 1 263 1
91 0 5 325 1 302 1 252 1 274 1 342 1
92 0 5 326 1 305 1 357 1 435 1 374 1
93 0 5 327 1 358 1 405 1 256 1 258 1
94 0 5 328 1 370 1 401 1 293 1 419 1
95 0 5 329 1 286 1 409 1 435 1 371 1
96 0 5 330 1 393 1 436 1 343 1 425 1
97 0 5 331 1 365 1 340 1 250 1 263 1
98 0 5 332 1 331 1 249 1 431 1 365 1
99 0 5 333 1 392 1 416 1 352 1 422 1
100 0 5 334 1 288 1 418 1 372 1 379 1
101 0 5 335 1 445 1 299 1 345 1 414 1
102 0 5 336 1 401 1 354 1 270 1 361 1
103 0 5 337 1 443 1 381 1 279 1 427 1
104 0 5 338 1 432 1 406 1 359 1 447 1
105 0 5 339 1 253 1 323 1 289 1 293 1
106 0 5 340 1 250 1 263 1 294 1 309 1
107 0 5 341 1 402 1 341 1 356 1 269 1
108 0 5 342 1 235 1 280 1 274 1 413 1
109 0 5 343 1 436 1 393 1 425 1 353 1
110 0 5 344 1 384 1 235 1 280 1 413 1
111 0 5 345 1 397 1 414 1 344 1 280 1
112 0 5 346 1 298 1 291 1 377 1 412 1
113 0 5 347 1 439 1 403 1 391 1 388 1
114 0 5 348 1 313 1 308 1 390 1 410 1
115 0 5 349 1 273 1 394 1 370 1 385 1
116 0 5 350 1 329 1 286 1 435 1 409 1
117 0 5 351 1 247 1 399 1 382 1 364 1
118 0 5 352 1 444 1 284 1 392 1 416 1
119 0 5 353 1 292 1 449 1 378 1 428 1
120 0 5 354 1 401 1 336 1 270 1 361 1
121 0 5 355 1 254 1 427 1 368 1 366 1
122 0 5 356 1 400 1 423 1 330 1 436 1
123 0 5 357 1 374 1 278 1 237 1 305 1
124 0 5 358 1 405 1 433 1 369 1 322 1
125 0 5 359 1 376 1 304 1 305 1 448 1
126 0 5 360 1 307 1 239 1 440 1 341 1
127 0 5 361 1 306 1 244 1 272 1 441 1
128 0 5 362 1 333 1 367 1 242 1 392 1
129 0 5 363 1 440 1 341 1 360 1 402 1
130 0 5 364 1 246 1 448 1 282 1 241 1
131 0 5 365 1 263 1 309 1 250 1 294 1
132 0 5 366 1 337 1 279 1 254 1 355 1
133 0 5 367 1 242 1 362 1 333 1 416 1
134 0 5 368 1 387 1 261 1 355 1 283 1
135 0 5 369 1 387 1 285 1 391 1 275 1
136 0 5 370 1 293 1 419 1 349 1 434 1
137 0 5 371 1 424 1 321 1 359 1 409 1
138 0 5 372 1 418 1 291 1 288 1 290 1
139 0 5 373 1 372 1 418 1 291 1 334 1
140 0 5 374 1 397 1 301 1 248 1 278 1
141 0 5 375 1 422 1 377 1 346 1 392 1
142 0 5 376 1 304 1 305 1 435 1 329 1
143 0 5 377 1 346 1 298 1 291 1 422 1
144 0 5 378 1 411 1 281 1 271 1 268 1
145 0 5 379 1 336 1 354 1 401 1 370 1
146 0 5 380 1 430 1 314 1 287 1 322 1
147 0 5 381 1 381 1 303 1 337 1 431 1
148 0 5 382 1 395 1 399 1 364 1 247 1
149 0 5 383 1 432 1 406 1 359 1 338 1
150 0 5 384 1 309 1 265 1 249 1 263 1
151 0 5 385 1 257 1 293 1 419 1 386 1
152 0 5 386 1 251 1 438 1 375 1 333 1
153 0 5 387 1 275 1 431 1 388 1 249 1
154 0 5 388 1 249 1 404 1 331 1 324 1
155 0 5 389 1 259 1 296 1 407 1 260 1
156 0 5 390 1 313 1 308 1 410 1 348 1
157 0 5 391 1 347 1 439 1 403 1 275 1
158 0 5 392 1 352 1 284 1 422 1 444 1
159 0 5 393 1 425 1 343 1 436 1 353 1
160 0 5 394 1 273 1 349 1 385 1 293 1
161 0 5 395 1 448 1 282 1 326 1 246 1
162 0 5 396 1 253 1 323 1 339 1 293 1
163 0 5 397 1 344 1 414 1 280 1 276 1
164 0 5 398 1 429 1 347 1 439 1 380 1
165 0 5 399 1 382 1 247 1 395 1 351 1
166 0 5 400 1 423 1 330 1 436 1 343 1
167 0 5 401 1 270 1 354 1 361 1 306 1
168 0 5 402 1 269 1 330 1 400 1 393 1
169 0 5 403 1 403 1 314 1 264 1 429 1
170 0 5 404 1 324 1 340 1 250 1 365 1
171 0 5 405 1 285 1 387 1 391 1 404 1
172 0 5 406 1 300 1 321 1 359 1 432 1
173 0 5 407 1 312 1 345 1 299 1 445 1
174 0 5 408 1 389 1 315 1 259 1 262 1
175 0 5 409 1 371 1 424 1 383 1 267 1
176 0 5 410 1 248 1 390 1 364 1 246 1
177 0 5 411 1 271 1 268 1 281 1 356 1
178 0 5 412 1 323 1 253 1 238 1 289 1
179 0 5 413 1 262 1 408 1 255 1 368 1
180 0 5 414 1 344 1 397 1 235 1 280 1
181 0 5 415 1 319 1 428 1 281 1 426 1
182 0 5 416 1 352 1 444 1 284 1 392 1
183 0 5 417 1 310 1 398 1 347 1 391 1
184 0 5 418 1 288 1 379 1 290 1 372 1
185 0 5 419 1 434 1 272 1 441 1 386 1
186 0 5 420 1 367 1 242 1 362 1 333 1
187 0 5 421 1 362 1 333 1 367 1 242 1
188 0 5 422 1 377 1 346 1 392 1 298 1
189 0 5 423 1 436 1 343 1 393 1 425 1
190 0 5 424 1 371 1 321 1 409 1 267 1
191 0 5 425 1 245 1 240 1 428 1 281 1
192 0 5 426 1 360 1 239 1 307 1 268 1
193 0 5 427 1 431 1 443 1 261 1 332 1
194 0 5 428 1 281 1 411 1 363 1 271 1
195 0 5 429 1 380 1 430 1 314 1 439 1
196 0 5 430 1 287 1 327 1 277 1 322 1
197 0 5 431 1 332 1 427 1 275 1 249 1
198 0 5 432 1 447 1 359 1 321 1 376 1
199 0 5 433 1 384 1 294 1 250 1 249 1
200 0 5 434 1 272 1 441 1 316 1 373 1
201 0 5 435 1 409 1 329 1 371 1 424 1
202 0 5 436 1 436 1 393 1 425 1 353 1
203 0 5 437 1 421 1 420 1 362 1 333 1
204 0 5 438 1 422 1 377 1 346 1 392 1
205 0 5 439 1 314 1 403 1 264 1 429 1
206 0 5 440 1 402 1 269 1 341 1 330 1
207 0 5 441 1 441 1 316 1 373 1 444 1
208 0 5 442 1 302 1 252 1 274 1 342 1
209 0 5 443 1 303 1 431 1 332 1 337 1
210 0 5 444 1 444 1 396 1 290 1 289 1
211 0 5 445 1 414 1 344 1 397 1 445 1
212 0 5 446 1 446 1 334 1 373 1 288 1
213 0 5 447 1 376 1 304 1 305 1 448 1
214 0 5 448 1 326 1 246 1 241 1 305 1
215 0 5 449 1 318 1 378 1 292 1 245 1
216 0 5 450 0 235 1 450 1 451 1 452 1
217 0 5 451 0 235 1 450 1 451 1 452 1
218 0 5 452 0 235 1 450 1 451 1 452 1
219 0 5 453 0 235 1 450 1 451 1 452 1
220 0 5 454 0 235 1 450 1 451 1 452 1
221 0 5 455 0 235 1 450 1 451 1 452 1
222 0 5 456 0 235 1 450 1 451 1 452 1
223 0 5 457 0 235 1 450 1 451 1 452 1
224 0 5 458 0 235 1 450 1 451 1 452 1
225 0 5 459 0 235 1 450 1 451 1 452 1
226 0 5 460 0 235 1 450 1 451 1 452 1
227 0 5 461 0 235 1 450 1 451 1 452 1
228 0 5 462 0 235 1 450 1 451 1 452 1
229 0 5 463 0 235 1 450 1 451 1 452 1
230 0 5 464 0 235 1 450 1 451 1 452 1
231 0 5 465 0 235 1 450 1 451 1 452 1
232 0 5 466 0 235 1 450 1 451 1 452 1
233 0 5 467 0 235 1 450 1 451 1 452 1
234 0 5 468 0 235 1 450 1 451 1 452 1
235 0 5 1 0 234 1 233 1 232 1 231 1
236 0 5 2 1 10 1 212 1 82 1 72 1
237 0 5 3 1 44 1 14 1 123 1 7 1
238 0 5 4 1 178 1 162 1 50 1 210 1
239 0 5 5 1 73 1 126 1 192 1 85 1
240 0 5 6 1 191 1 109 1 202 1 159 1
241 0 5 7 1 12 1 14 1 130 1 214 1
242 0 5 8 1 133 1 186 1 128 1 99 1
243 0 5 9 1 89 1 19 1 59 1 4 1
244 0 5 10 1 72 1 127 1 38 1 207 1
245 0 5 11 1 6 1 191 1 109 1 202 1
246 0 5 12 1 130 1 14 1 48 1 214 1
247 0 5 13 1 117 1 74 1 165 1 148 1
248 0 5 14 1 176 1 156 1 130 1 79 1
249 0 5 15 1 154 1 41 1 98 1 197 1
250 0 5 16 1 106 1 131 1 90 1 15 1
251 0 5 17 1 152 1 99 1 158 1 23 1
252 0 5 18 1 68 1 208 1 91 1 2 1
253 0 5 19 1 105 1 162 1 4 1 178 1
254 0 5 20 1 121 1 45 1 132 1 31 1
255 0 5 21 1 179 1 42 1 28 1 46 1
256 0 5 22 1 124 1 93 1 16 1 43 1
257 0 5 23 1 151 1 39 1 185 1 59 1
258 0 5 24 1 93 1 43 1 53 1 171 1
259 0 5 25 1 155 1 32 1 174 1 21 1
260 0 5 26 1 32 1 81 1 86 1 155 1
261 0 5 27 1 134 1 49 1 193 1 153 1
262 0 5 28 1 179 1 46 1 21 1 42 1
263 0 5 29 1 131 1 106 1 97 1 15 1
264 0 5 30 1 80 1 205 1 169 1 170 1
265 0 5 31 1 150 1 75 1 29 1 131 1
266 0 5 32 1 81 1 86 1 21 1 174 1
267 0 5 33 1 190 1 137 1 175 1 52 1
268 0 5 34 1 37 1 107 1 177 1 144 1
269 0 5 35 1 168 1 107 1 206 1 166 1
270 0 5 36 1 167 1 120 1 102 1 136 1
271 0 5 37 1 177 1 47 1 144 1 84 1
272 0 5 38 1 200 1 207 1 152 1 185 1
273 0 5 39 1 115 1 160 1 178 1 57 1
274 0 5 40 1 18 1 68 1 140 1 110 1
275 0 5 41 1 153 1 197 1 27 1 134 1
276 0 5 42 1 163 1 180 1 211 1 111 1
277 0 5 43 1 88 1 106 1 196 1 30 1
278 0 5 44 1 14 1 7 1 123 1 176 1
279 0 5 45 1 132 1 63 1 103 1 121 1
280 0 5 46 1 1 1 150 1 163 1 110 1
281 0 5 47 1 194 1 144 1 177 1 11 1
282 0 5 48 1 161 1 48 1 12 1 130 1
283 0 5 49 1 134 1 121 1 150 1 199 1
284 0 5 50 1 118 1 210 1 158 1 182 1
285 0 5 51 1 135 1 171 1 124 1 53 1
286 0 5 52 1 95 1 116 1 87 1 142 1
287 0 5 53 1 196 1 88 1 146 1 93 1
288 0 5 54 1 100 1 184 1 138 1 2 1
289 0 5 55 1 19 1 105 1 89 1 4 1
290 0 5 56 1 54 1 57 1 184 1 210 1
291 0 5 57 1 64 1 112 1 143 1 139 1
292 0 5 58 1 58 1 119 1 191 1 6 1
293 0 5 59 1 136 1 19 1 56 1 94 1
294 0 5 60 1 16 1 106 1 29 1 131 1
295 0 5 61 1 83 1 119 1 109 1 202 1
296 0 5 62 1 25 1 26 1 155 1 163 1
297 0 5 63 1 1 1 132 1 45 1 31 1
298 0 5 64 1 112 1 143 1 57 1 188 1
299 0 5 65 1 101 1 62 1 78 1 211 1
300 0 5 66 1 172 1 33 1 149 1 104 1
301 0 5 67 1 140 1 163 1 165 1 74 1
302 0 5 68 1 208 1 91 1 140 1 123 1
303 0 5 69 1 209 1 147 1 103 1 193 1
304 0 5 70 1 142 1 125 1 213 1 87 1
305 0 5 71 1 92 1 7 1 48 1 214 1
306 0 5 72 1 127 1 36 1 167 1 120 1
307 0 5 73 1 126 1 5 1 192 1 122 1
308 0 5 74 1 114 1 156 1 13 1 117 1
309 0 5 75 1 29 1 131 1 199 1 150 1
310 0 5 76 1 183 1 24 1 157 1 51 1
311 0 5 77 1 69 1 98 1 147 1 209 1
312 0 5 78 1 173 1 62 1 26 1 101 1
313 0 5 79 1 114 1 156 1 1 1 46 1
314 0 5 80 1 205 1 169 1 146 1 113 1
315 0 5 81 1 86 1 42 1 174 1 21 1
316 0 5 82 1 38 1 207 1 200 1 72 1
317 0 5 83 1 61 1 11 1 189 1 194 1
318 0 5 84 1 215 1 58 1 191 1 6 1
319 0 5 85 1 181 1 83 1 61 1 11 1
320 0 5 86 1 42 1 21 1 28 1 46 1
321 0 5 87 1 172 1 198 1 33 1 104 1
322 0 5 88 1 30 1 80 1 90 1 170 1
323 0 5 89 1 4 1 178 1 162 1 105 1
324 0 5 90 1 170 1 15 1 154 1 98 1
325 0 5 91 1 3 1 44 1 123 1 140 1
326 0 5 92 1 214 1 48 1 161 1 12 1
327 0 5 93 1 53 1 43 1 124 1 196 1
328 0 5 94 1 54 1 184 1 138 1 100 1
329 0 5 95 1 116 1 201 1 87 1 70 1
330 0 5 96 1 35 1 168 1 107 1 206 1
331 0 5 97 1 98 1 197 1 15 1 41 1
332 0 5 98 1 197 1 41 1 193 1 153 1
333 0 5 99 1 128 1 133 1 187 1 158 1
334 0 5 100 1 2 1 212 1 10 1 139 1
335 0 5 101 1 62 1 25 1 26 1 155 1
336 0 5 102 1 145 1 120 1 94 1 184 1
337 0 5 103 1 132 1 45 1 63 1 147 1
338 0 5 104 1 149 1 190 1 175 1 137 1
339 0 5 105 1 162 1 210 1 50 1 158 1
340 0 5 106 1 90 1 170 1 15 1 97 1
341 0 5 107 1 129 1 107 1 34 1 47 1
342 0 5 108 1 40 1 18 1 110 1 140 1
343 0 5 109 1 202 1 189 1 96 1 159 1
344 0 5 110 1 180 1 163 1 65 1 211 1
345 0 5 111 1 78 1 173 1 101 1 62 1
346 0 5 112 1 143 1 188 1 204 1 141 1
347 0 5 113 1 51 1 157 1 41 1 135 1
348 0 5 114 1 1 1 156 1 110 1 46 1
349 0 5 115 1 160 1 136 1 39 1 57 1
350 0 5 116 1 66 1 87 1 125 1 172 1
351 0 5 117 1 74 1 165 1 67 1 114 1
352 0 5 118 1 182 1 158 1 99 1 8 1
353 0 5 119 1 109 1 202 1 159 1 96 1
354 0 5 120 1 102 1 145 1 167 1 94 1
355 0 5 121 1 132 1 31 1 134 1 45 1
356 0 5 122 1 34 1 107 1 37 1 177 1
357 0 5 123 1 7 1 92 1 12 1 44 1
358 0 5 124 1 43 1 88 1 199 1 106 1
359 0 5 125 1 198 1 104 1 149 1 172 1
360 0 5 126 1 192 1 5 1 85 1 129 1
361 0 5 127 1 36 1 167 1 120 1 102 1
362 0 5 128 1 187 1 133 1 186 1 9 1
363 0 5 129 1 47 1 177 1 194 1 202 1
364 0 5 130 1 13 1 74 1 148 1 176 1
365 0 5 131 1 97 1 15 1 98 1 199 1
366 0 5 132 1 63 1 45 1 121 1 31 1
367 0 5 133 1 186 1 128 1 187 1 55 1
368 0 5 134 1 49 1 27 1 121 1 31 1
369 0 5 135 1 124 1 53 1 43 1 88 1
370 0 5 136 1 56 1 94 1 115 1 162 1
371 0 5 137 1 175 1 190 1 52 1 201 1
372 0 5 138 1 139 1 100 1 54 1 82 1
373 0 5 139 1 82 1 38 1 207 1 184 1
374 0 5 140 1 71 1 123 1 7 1 92 1
375 0 5 141 1 17 1 152 1 204 1 158 1
376 0 5 142 1 213 1 125 1 87 1 66 1
377 0 5 143 1 188 1 204 1 141 1 158 1
378 0 5 144 1 58 1 215 1 11 1 119 1
379 0 5 145 1 184 1 54 1 138 1 100 1
380 0 5 146 1 195 1 80 1 164 1 205 1
381 0 5 147 1 147 1 103 1 45 1 132 1
382 0 5 148 1 165 1 13 1 67 1 74 1
383 0 5 149 1 190 1 175 1 137 1 52 1
384 0 5 150 1 75 1 60 1 29 1 131 1
385 0 5 151 1 39 1 115 1 59 1 160 1
386 0 5 152 1 23 1 151 1 185 1 59 1
387 0 5 153 1 27 1 134 1 193 1 49 1
388 0 5 154 1 41 1 153 1 98 1 51 1
389 0 5 155 1 174 1 81 1 28 1 21 1
390 0 5 156 1 1 1 176 1 114 1 79 1
391 0 5 157 1 51 1 113 1 135 1 171 1
392 0 5 158 1 99 1 188 1 128 1 9 1
393 0 5 159 1 96 1 35 1 109 1 202 1
394 0 5 160 1 115 1 178 1 57 1 64 1
395 0 5 161 1 148 1 13 1 165 1 67 1
396 0 5 162 1 210 1 50 1 158 1 118 1
397 0 5 163 1 111 1 180 1 211 1 65 1
398 0 5 164 1 76 1 183 1 113 1 24 1
399 0 5 165 1 13 1 148 1 67 1 117 1
400 0 5 166 1 122 1 34 1 107 1 37 1
401 0 5 167 1 102 1 120 1 145 1 94 1
402 0 5 168 1 206 1 107 1 122 1 129 1
403 0 5 169 1 113 1 169 1 157 1 51 1
404 0 5 170 1 154 1 98 1 41 1 171 1
405 0 5 171 1 124 1 43 1 53 1 88 1
406 0 5 172 1 33 1 149 1 104 1 190 1
407 0 5 173 1 26 1 25 1 32 1 155 1
408 0 5 174 1 28 1 179 1 21 1 134 1
409 0 5 175 1 52 1 201 1 95 1 71 1
410 0 5 176 1 79 1 156 1 1 1 114 1
411 0 5 177 1 144 1 84 1 47 1 194 1
412 0 5 178 1 64 1 112 1 143 1 188 1
413 0 5 179 1 150 1 163 1 110 1 134 1
414 0 5 180 1 211 1 65 1 163 1 111 1
415 0 5 181 1 83 1 61 1 11 1 189 1
416 0 5 182 1 8 1 99 1 133 1 158 1
417 0 5 183 1 24 1 22 1 135 1 171 1
418 0 5 184 1 138 1 54 1 139 1 100 1
419 0 5 185 1 59 1 136 1 56 1 115 1
420 0 5 186 1 55 1 9 1 203 1 19 1
421 0 5 187 1 203 1 9 1 59 1 19 1
422 0 5 188 1 204 1 141 1 158 1 99 1
423 0 5 189 1 166 1 122 1 159 1 109 1
424 0 5 190 1 137 1 175 1 52 1 201 1
425 0 5 191 1 109 1 202 1 159 1 189 1
426 0 5 192 1 85 1 181 1 144 1 194 1
427 0 5 193 1 20 1 197 1 121 1 103 1
428 0 5 194 1 11 1 6 1 191 1 159 1
429 0 5 195 1 164 1 76 1 205 1 169 1
430 0 5 196 1 146 1 195 1 80 1 169 1
431 0 5 197 1 193 1 41 1 20 1 153 1
432 0 5 198 1 149 1 104 1 33 1 172 1
433 0 5 199 1 60 1 16 1 150 1 75 1
434 0 5 200 1 185 1 59 1 136 1 115 1
435 0 5 201 1 70 1 71 1 95 1 125 1
436 0 5 202 1 189 1 202 1 96 1 159 1
437 0 5 203 1 89 1 19 1 59 1 4 1
438 0 5 204 1 17 1 152 1 204 1 99 1
439 0 5 205 1 113 1 157 1 169 1 154 1
440 0 5 206 1 129 1 107 1 47 1 34 1
441 0 5 207 1 200 1 207 1 152 1 185 1
442 0 5 208 1 3 1 44 1 123 1 91 1
443 0 5 209 1 103 1 45 1 193 1 147 1
444 0 5 210 1 118 1 158 1 182 1 210 1
445 0 5 211 1 101 1 62 1 78 1 173 1
446 0 5 212 1 10 1 212 1 82 1 72 1
447 0 5 213 1 198 1 104 1 149 1 172 1
448 0 5 214 1 161 1 12 1 48 1 130 1
449 0 5 215 1 119 1 58 1 191 1 6 1
450 0 5 216 0 234 1 233 1 232 1 231 1
451 0 5 217 0 234 1 233 1 232 1 231 1
452 0 5 218 0 234 1 233 1 232 1 231 1
453 0 5 219 0 234 1 233 1 232 1 231 1
454 0 5 220 0 234 1 233 1 232 1 231 1
455 0 5 221 0 234 1 233 1 232 1 231 1
456 0 5 222 0 234 1 233 1 232 1 231 1
457 0 5 223 0 234 1 233 1 232 1 231 1
458 0 5 224 0 234 1 233 1 232 1 231 1
459 0 5 225 0 234 1 233 1 232 1 231 1
460 0 5 226 0 234 1 233 1 232 1 231 1
461 0 5 227 0 234 1 233 1 232 1 231 1
462 0 5 228 0 234 1 233 1 232 1 231 1
463 0 5 229 0 234 1 233 1 232 1 231 1
464 0 5 230 0 234 1 233 1 232 1 231 1
465 0 5 231 0 234 1 233 1 232 1 231 1
466 0 5 232 0 234 1 233 1 232 1 231 1
467 0 5 233 0 234 1 233 1 232 1 231 1
468 0 5 234 0 234 1 233 1 232 1 231 1
-1
EOF
